c Lingeling SAT Solver
c 
c Version ala b02aa1a04343558c4252b5f4a723be021964f652
c 
c Copyright (C) 2010-2012 Armin Biere JKU Linz Austria.
c All rights reserved.
c 
c released Sat Oct 13 14:05:26 CEST 2012
c compiled Sat Feb 16 02:48:12 EST 2013
c 
c gcc (Debian 4.4.5-8) 4.4.5
c -Wall -O3 -DNLGLOG -DNDEBUG -DNCHKSOL -DNLGLPICOSAT 
c Linux greencar2 2.6.32-5-amd64 x86_64
c 
c reading input file p08.cnf
c no embedded options
c found 'p cnf 72693 216307' header
c read 72693 variables, 216307 clauses, 447503 literals in 0.0 seconds
c
c feature vars 72693
c feature lits.total 447503
c feature lits.pos 240815
c feature lits.neg 206688
c feature clauses.total 216307
c feature clauses.unit 28823
c feature clauses.bin 152872
c feature clauses.trn 33912
c feature clauses.lrg 700
c feature cog.val.min 1
c feature cog.val.avg 32362
c feature cog.val.max 68521
c feature cog.var.min 1
c feature cog.var.avg 36347
c feature cog.var.max 72692
c
c
c --abstime=0
c --acts=2
c --actavgmax=120
c --actstdmin=20
c --actstdmax=80
c --agile=23
c --bias=2
c --block=1
c --blkrtc=0
c --blkclslim=2000
c --blkocclim=2000
c --blkmaxeff=2147483647
c --blkmineff=10000000
c --blkreleff=20
c --card=0
c --cce=3
c --ccemaxeff=100000000
c --ccemineff=5000000
c --ccereleff=3
c --check=0
c --cgrclsr=1
c --cgrmaxority=20
c --cgrmaxeff=8000000
c --cgrmineff=200000
c --cgreleff=1
c --cgrexteq=1
c --cgrextand=1
c --cgrextunits=1
c --cgrextite=1
c --cgrextxor=1
c --cliff=1
c --cliffreleff=8
c --cliffmineff=10000000
c --cliffmaxeff=100000000
c --compact=0
c --decompose=1
c --defragint=10000000
c --defragfree=50
c --elim=1
c --elmrtc=0
c --elmblk=1
c --elmclslim=1000
c --elmocclim=1000
c --elmaxeff=100000000
c --elmineff=5000000
c --elmreleff=10
c --sleeponabort=0
c --exitonabort=0
c --flipping=1
c --flipint=2
c --flipdur=50
c --fliptop=1
c --force=0
c --gauss=1
c --gaussextrall=1
c --gaussmaxor=20
c --gaussexptrn=1
c --gaussmaxeff=50000000
c --gaussmineff=2000000
c --gaussreleff=2
c --gluescale=2
c --gluekeep=0
c --inprocessing=1
c --cintinc=10000
c --irrlim=20
c --lift=1
c --lftmaxeff=20000000
c --lftmineff=500000
c --lftreleff=6
c --lhbr=1
c --lkhd=1
c --clim=-1
c --mocint=1000
c --move=2
c --log=-1
c --otfs=1
c --phase=0
c --phaseneginit=0
c --plain=0
c --probe=1
c --prbasicmaxeff=100000000
c --prbasicmineff=1000000
c --prbasicreleff=10
c --prbasic=1
c --prbasicroundlim=9
c --queuemergelim=10000
c --queuefactor=833
c --queueinc=20
c --rmincpen=4
c --seed=0
c --smallirr=90
c --smallve=1
c --smallvevars=12
c --randec=1
c --randecint=1000
c --redfixed=0
c --redlbound=0
c --redlexpfac=10
c --redldoutfac=0
c --redloutinc=10000
c --redlinit=1000
c --redlinc=1000
c --redinoutinc=100
c --redlmininc=10
c --redlmaxinc=200
c --redlminrel=10
c --redlmaxrel=300
c --redlminabs=500
c --redlmaxabs=1000000
c --reduce=1
c --restart=2
c --restartint=5
c --rstinoutinc=110
c --simplify=1
c --simpdelay=100
c --simpen=4
c --sizepen=1000000
c --sizemaxpen=3
c --sortlits=0
c --syncint=111111
c --termint=122222
c --ternres=1
c --ternresrtc=0
c --trnrmineff=4000000
c --trnrmaxeff=40000000
c --trnreleff=10
c --transred=1
c --trdmineff=100000
c --trdmaxeff=2000000
c --trdreleff=10
c --unhide=1
c --unhdextstamp=1
c --unhdhbr=0
c --unhdmaxeff=20000000
c --unhdmineff=1000000
c --unhdreleff=4
c --unhdlnpr=3
c --unhdroundlim=5
c --verbose=1
c --witness=1
c [limits] no conflict limit
c [limits] simplification delayed by 100 to 100 conflicts
c 
c  seconds         irredundant          redundant clauses agility   height
c          variables clauses conflicts large binary ternary    glue         MB
c 
c *    0.0   35512   141722         0       0      0     0  31  0.0   0.0   14
c [cut-width] 46455, max 81677, min4 18752 at 75%, min10 16249 at 84%
c [decision-order] bias 1, old 1
c [queue-schedule-all-variables]
c s    0.0   35512   141722         0       0      0     0  31  0.0   0.0   14
c [simplification-1] limit hit at 100 conflicts
c [simplification-1] simplification penalty of 4
c [ternres-1] limit 4000000 with penalty 0 = 0 + 0
c [ternres-1] all 35512 free variables schedulable
c [ternres-1] 0 ternary resolvents (0 bin, 0 trn)
c [ternres-1] fully completed ternary resolution
c [gauss-1] limit 2000000 penalty 0 = 0 + 0
c [gauss-1] extracted 133878 xors of average arity 2.0
c [gauss-1] connected 267762 occurrences of 35412 variables (average 7.6)
c [gauss-1] limit 2000000 penalty 0 = 0 + 0
c [gauss-1] exported 0 unary, 0 binary and 0 ternary equations
c G    0.3   35512   131030       100      99      0     1  34  5.2 107.3   10
c d    0.3   15250    64094       100      99      0     0  34  5.2 107.3    8
c [basicprobe-1] limit 1000000 penalty 0 = 0 + 0
c [basicprobe-1-0] 1943 probes remain 13% after last round
c [basicprobe-1-0] 7 units = 7 failed (100%) + 0 lifted (0%)
c [basicprobe-1-0] removed 7 variables, found 2789 hbrs
c p    0.4   15243    64094       100      99   2788     0  34  5.2 107.3    9
c [cgrclsr-1] limit 200000 penalty 0 = 0 + 0
c [cgrclsr-1] all 15243 free variables schedulable
c [cgrclsr-1] fully completed congruence closure
c [cgrclsr-1] removed 1 variables
c C    0.4   15242    64033       100      99   2756     0  34  5.2 107.3    8
c [lift-1] limit 500000 with penalty 0 = 0 + 0
c [lift-1] using 15242 probes 100%
c [lift-1] 15131 variables remain 99% (104 retained)
c [lift-1] removed 7 variables
c ^    0.4   15235    63998       100      99   3168     0  34  5.2 107.3    8
c [cliff-1] limit of 10000000 steps penalty 0 = 0 + 0
c [cliff-1] failed 21, lifted 22
c K    0.8   15149    63998       100      99   9613     0  34  5.2 107.3    9
c [unhide-1] limit 1000000 with penalty 0 = 0 + 0
c [unhide-1-4] 0 units, 3 failed, 7602 tauts, 0 hbrs, 317 literals
c u    0.9   15145    59637       100      99   5769     0  34  5.2 107.3    9
c [transred-1] limit 100000 with penalty 0 = 0 + 0
c t    0.9   15145    59632       100      99   5762     0  34  5.2 107.3    9
c [block-1] scheduling all variables this time
c [block-1] scheduled 15145 variables 100%
c [block-1] limit of 10000000 steps penalty 0 = 0 + 0
c [block-1] fully completed blocked clause elimination
c [block-1] transition to [ all 0 rem 0 ] state
c [block-1] eliminated 2200 blocked clauses
c k    1.0   15145    57428       100      99   5763  2199  34  5.2 107.3    8
c [cce-1] scheduling all variables this time
c [cce-1] limit of 10000000 steps penalty 0 = 0 + 0
c [cce-1] incomplete covered clause elimination 10764 not tried 71%
c [cce-1] transition to [ all 1 rem 1 ] state
c [cce-1] eliminated 711 covered clauses
c E    1.3   15114    56717       100      99   9485  2197  34  5.2 107.3    8
c [elim-1] scheduling all variables this time
c [elim-1] scheduled 15114 variables 100%
c [elim-1] limit of 5000000 steps penalty 0 = 0 + 0
c [elim-1] incomplete variable elimination 3820 not tried 25%
c [elim-1] transition to [ all 1 rem 1 ] state
c [elim-1] eliminated 3673 = 24% variables out of 15114
c e    2.2   11441    54662       100      61   2390   307  34  5.2 107.3    8
c [phase-1] phase bias: 78 positive 16%, 413 negative 84%
c [simplification-1] removed 24071 variables 67%
c [simplification-1] limit increments divided by 34
c [simplification-1] arithmetic increase of conflict limit interval by 294
c [simplification-1] new irredundant limit 649008
c [simplification-1] new conflict limit 394
c [simplification-1] simplification penalty reduced to 3
c [simplification-2] limit hit at 394 conflicts
c [simplification-2] simplification penalty of 3
c [ternres-2] limit 2000000 with penalty 1 = 1 + 0
c [ternres-2] all 11441 free variables schedulable
c [ternres-2] 556 ternary resolvents (1 bin, 555 trn)
c [ternres-2] fully completed ternary resolution
c T    2.2   11441    54662       394     335   2396   876  20  9.0 110.1    9
c [gauss-2] limit 1000000 penalty 1 = 1 + 0
c [gauss-2] extracted 835 xors of average arity 3.0
c [gauss-2] connected 2508 occurrences of 855 variables (average 2.9)
c [gauss-2] limit 1000000 penalty 1 = 1 + 0
c [gauss-2] fully completed
c [gauss-2] exported 0 unary, 0 binary and 0 ternary equations
c G    2.3   11441    54662       394     335   2396   876  20  9.0 110.1    8
c [basicprobe-2] limit 1000000 penalty 0 = 0 + 0
c [basicprobe-2-0] 1591 probes remain 14% after last round
c [basicprobe-2-0] 2 units = 2 failed (100%) + 0 lifted (0%)
c [basicprobe-2-0] removed 2 variables, found 586 hbrs
c p    2.3   11439    54662       394     335   2979   854  20  9.0 110.1    9
c [cgrclsr-2] limit 200000 penalty 0 = 0 + 0
c [cgrclsr-2] all 11439 free variables schedulable
c [cgrclsr-2] fully completed congruence closure
c [lift-2] limit 500000 with penalty 0 = 0 + 0
c [lift-2] using 11359 probes 99%
c [lift-2] 11225 variables remain 98% (214 retained)
c [cliff-2] limit of 10000000 steps penalty 0 = 0 + 0
c [cliff-2] failed 4, lifted 0
c K    2.9   11434    54649       394     335   4097   820  20  9.0 110.1    9
c [unhide-2] limit 1000000 with penalty 0 = 0 + 0
c [unhide-2-8] 0 units, 0 failed, 1012 tauts, 0 hbrs, 728 literals
c u    2.9   11434    54076       394     334   3639   789  20  9.0 110.1    9
c [transred-3] limit 100000 with penalty 0 = 0 + 0
c t    3.0   11434    54068       394     334   3634   789  20  9.0 110.1    9
c [block-2] scheduling all variables this time
c [block-2] scheduled 11434 variables 100%
c [block-2] limit of 10000000 steps penalty 0 = 0 + 0
c [block-2] fully completed blocked clause elimination
c [block-2] transition to [ all 0 rem 0 ] state
c [block-2] eliminated 0 blocked clauses
c [cce-2] 9489 variables 83% will be scheduled this time
c [cce-2] limit of 10000000 steps penalty 0 = 0 + 0
c [cce-2] 7487 variables 66% remain to be tried next time
c [cce-2] transition to [ all 0 rem 1 ] state
c [cce-2] eliminated 836 covered clauses
c E    3.3   11412    53232       394     334   4377   789  20  9.0 110.1    8
c [elim-2] 3739 variables 33% will be scheduled this time
c [elim-2] scheduled 3739 variables 33%
c [elim-2] limit of 5000000 steps penalty 0 = 0 + 0
c [elim-2] fully completed variable elimination
c [elim-2] transition to [ all 0 rem 0 ] state
c [elim-2] eliminated 85 = 1% variables out of 11412
c e    3.5   11327    53085       394     322   4243   787  20  9.0 110.1    8
c [phase-2] phase bias: 0 positive 0%, 0 negative 0%
c [simplification-2] removed 114 variables 0%
c [simplification-2] no reduction of limit increments
c [simplification-2] arithmetic increase of conflict limit interval by 10000
c [simplification-2] new irredundant limit 649008
c [simplification-2] new conflict limit 10688
c [simplification-2] simplification penalty reduced to 2
c R    3.5   11327    53085       416     338   4243   793  19  8.8 106.6    9
c R    3.6   11327    53085       980     817   4259   853   8  7.0  77.3    9
c 
c  seconds         irredundant          redundant clauses agility   height
c          variables clauses conflicts large binary ternary    glue         MB
c 
c -    3.6   11327    53085      1233     501   4275   897   7  6.5  69.7    9
c R    3.8   11327    53085      2287    1414   4301   994   8  6.6  74.4    9
c -    4.1   11327    53085      4336    1585   4395  1242   9  6.6  68.3   10
c R    4.2   11327    53085      5202    2418   4400  1268  10  7.8  69.4   10
c -    4.7   11327    53085      8200    2504   4506  1534   7  8.6  69.4   10
c [simplification-3] limit hit at 10688 conflicts
c [simplification-3] simplification penalty of 2
c [ternres-3] limit 4000000 with penalty 0 = 0 + 0
c [ternres-3] all 11327 free variables schedulable
c [ternres-3] 224 ternary resolvents (2 bin, 222 trn)
c [ternres-3] fully completed ternary resolution
c T    5.0   11327    53085     10688    4832   4554  1855   7  9.3  73.3   10
c [gauss-3] limit 500000 penalty 2 = 2 + 0
c [gauss-3] extracted 474 xors of average arity 3.0
c [gauss-3] connected 1422 occurrences of 825 variables (average 1.7)
c [gauss-3] limit 500000 penalty 2 = 2 + 0
c [gauss-3] fully completed
c [gauss-3] exported 0 unary, 0 binary and 0 ternary equations
c G    5.1   11327    53085     10688    4832   4554  1855   7  9.3  73.3    9
c [basicprobe-3] limit 1000000 penalty 0 = 0 + 0
c [basicprobe-3-0] 1086 probes remain 10% after last round
c [basicprobe-3-0] removed 0 variables, found 658 hbrs
c p    5.2   11327    53085     10688    4832   5210  1828   7  9.3  73.3   10
c [cgrclsr-3] limit 100000 penalty 1 = 1 + 0
c [cgrclsr-3] all 11327 free variables schedulable
c [cgrclsr-3] fully completed congruence closure
c [lift-3] limit 250000 with penalty 1 = 1 + 0
c [lift-3] using 11114 probes 98%
c [lift-3] 11050 variables remain 98% (277 retained)
c [cliff-3] limit of 10000000 steps penalty 0 = 0 + 0
c [cliff-3] failed 1, lifted 0
c K    5.7   11326    53085     10688    4832   7083  1765   7  9.3  73.3   10
c [unhide-3] limit 1000000 with penalty 0 = 0 + 0
c [unhide-3-11] 0 units, 0 failed, 602 tauts, 0 hbrs, 14407 literals
c u    5.9   11326    52913     10688    4719   6915  1604   7  9.3  73.3   10
c [transred-5] limit 366545 with penalty 0 = 0 + 0
c t    5.9   11326    52896     10688    4719   6896  1604   7  9.3  73.3   10
c [block-3] scheduling all variables this time
c [block-3] scheduled 11326 variables 100%
c [block-3] limit of 5000000 steps penalty 1 = 1 + 0
c [block-3] fully completed blocked clause elimination
c [block-3] transition to [ all 0 rem 0 ] state
c [block-3] eliminated 0 blocked clauses
c [cce-3] scheduling all variables this time
c [cce-3] limit of 10000000 steps penalty 0 = 0 + 0
c [cce-3] 7076 variables 62% remain to be tried next time
c [cce-3] transition to [ all 1 rem 1 ] state
c [cce-3] eliminated 177 covered clauses
c E    6.2   11325    52719     10688    4719   7146  1602   7  9.3  73.3    9
c [elim-3] scheduling all variables this time
c [elim-3] scheduled 11325 variables 100%
c [elim-3] limit of 5000000 steps penalty 0 = 0 + 0
c [elim-3] incomplete variable elimination 1677 not tried 15%
c [elim-3] transition to [ all 1 rem 1 ] state
c [elim-3] eliminated 640 = 6% variables out of 11325
c e    7.1   10685    52218     10688    4446   6188  1593   7  9.3  73.3    9
c [simplification-3] removed 642 variables 5%
c [simplification-3] limit increments divided by 3
c [simplification-3] arithmetic increase of conflict limit interval by 3333
c [simplification-3] new irredundant limit 649008
c [simplification-3] new conflict limit 24315
c [simplification-3] simplification penalty reduced to 1
c R    7.2   10685    52218     11674    5430   6188  1595   9  9.8  73.7   11
c -    7.6   10685    52218     13469    3519   6241  1712   8  9.5  71.8   10
c 1    8.0   10685    52218     16491    6328   6308  1853   9  9.4  71.7   10
c 
c  seconds         irredundant          redundant clauses agility   height
c          variables clauses conflicts large binary ternary    glue         MB
c 
c blkd: 3 bces, 2200 removed, 535671 resolutions, 1460174 steps
c blkd: 2200 blocking literals 2%, 0 pure
c cces: 3 cces, 1421 eliminated, 1421 ate 100%, 0 abce 0%
c cces: 20318 probed, 1 lifted, 37 failed
c clff: 3 cliffs, 22 lifted, 26 failed
c clff: 34081 decisions, 30014512 steps
c clls: 1 sat, 0 simp, 0 freeze, 0 melt
c clls: 663810 add, 0 assume,, 0 deref, 0 failed
c clls: 0 cassume, 0 mosat
c coll: 25 gcs, 0 rescored clauses
c cgrs: 3 count, 500000 esteps, 220250 csteps
c cgrs: 1 eqs, 0 units
c cgrs: 0 matched (0 ands 0%, 0 xors 0%, 0 ites 0%)
c cgrs: 0 simplified (0 ands 0%, 0 xors 0%, 0 ites 0%)
c cgrs: 4819 extracted (4116 ands 85%, 703 xors 15%, 0 ites 0%)
c dcps: 3 decompositions, 20263 equivalent 28%
c decs: 122299 decision, 120 random 0.098%
c decs: 33383 flipped 27.296% (in 101 phases)
c elms: 3 elims, 4398 eliminated 6%
c elms: 4398 small 100%, 0 large 0%
c elms: 20743 tried small, 4398 succeeded 21%, 16345 failed 79%
c elms: 126 subsumed, 7 strengthened, 0 blocked
c elms: 433557 copies, 360332 resolutions, 673167 ipos
c elms: 12160 subchks, 3285 strchks
c frcs: 0 computed, 21.2 - 78.8 average min-cut range
c gaus: 3 extractions, 135187 extracted, 2.0 size, 4 max
c gaus: exported 0 units, 0 binary and 0 ternary equations
c gaus: 0 gc, 5352084 steps, 2676042 extr 50%, 2310685 elim 43%
c glue: 9.4 avg, 3.0 scaled avg
c glue: 0 maxredglue=15 (0%)
c lift: 3 phases, 1810 probed (606 level1 33%, 1204 level2 67%)
c lift: 3 units, 0 equivalences, 9 implications
c hbrs: 17718 hbrs = 17718 trn 100% + 0 lrg 0%, 161 sub 1%
c lrnd: 16330 clauses, 9685 uips 59%, 35.5 length, 9.4 glue
c ints: 766 luby (106005 steps), 0 inout (0 steps)
c mins: 579632 learned lits, 17% minimized
c move: moved 3621, 1422 binary 39%, 2199 ternary 61%
c otfs: str 958 dyn (828 red, 130 irr) 161 drv 17%, 797 rst 83%
c otfs: sub 6 dyn (6 red, 0 irr)
c phas: 2 computed, 572 set, 78 pos (14%), 494 neg (86%)
c prbs: 3 basic, 3085 probed, 9 failed, 0 lifted
c prps: 22418077 props, 92 props/dec
c prps: 50% srch, 50% simp, 0% lkhd
c psns: 2217773 searches, 357052 hits, 16% hit rate
c queu: 84939 new, 31143 del, 120 maximum priority
c queu: 53776 merged, 53155 collected, 8 gcs
c queu: 17288 deprioritized, 29.6 lines on average
c reds: 4 count, 0 reset, 4 acts 100%, 0 exp 0%
c reds: 4 arithmetic 100%, 4 double 100%
c rmbd: 7 removed, 5 red 71%
c rsts: 705 restarts 92%, 60 skipped 8%
c rsts: 101 kept 14.3% average 39.1%
c simp: 3 count (0 ilim 0%, 0 plim 0%, 3 clim 100%)
c trnr: 3 count, 3 bin, 777 trn, 2255554 steps
c tops: 37347 fixed 51%, 0 iterations
c trds: 6 transitive reductions, 61 removed, 0 failed
c trds: 1714 nodes, 2691 edges, 566680 steps
c unhd: 3 count, 11 rounds, 3470548 steps
c unhd: 8 non-trivial sccs of average size 2.0
c unhd: 0 units, 0 bin, 0 trn, 0 lrg
c unhd: 3 failed, 3 stamp, 0 lits, 0 bin, 0 trn, 0 lrg
c unhd: 9216 tauts, 28 bin 0%, 559 trn 6%, 98 lrg 1%
c unhd: 9216 tauts, 8531 stamp 93%, 4598 red 50%
c unhd: 0 hbrs, 0 trn 0%, 0 lrg 0%, 0 red 0%
c unhd: 15452 strd, 0 bin 0%, 28 trn 0%, 15424 lrg 100%, 15446 red 100%
c vars: 10685 remaining 15% and 62008 removed 85% out of 72693
c vars: 37347 fixed 51%, 4398 eliminated 6%, 20263 equivalent 28%
c vsts: 103612644 visits, 55% srch, 45% simp, 0% lkhd
c vsts: 5.1 search visits per propagation 3466.2 per conflict
c wchs: 10202446 pushed, 1765224 enlarged, 37 defrags
c 
c scaledglue  added       reduced       forcing      resolved     conflicts
c 
c all     14802 100      8004 100    299690 100     54837 100      4871 100
c 
c  0          0   0         0   0         0   0         0   0         0   0 
c  1         71   0        31   0      2058   1       243   0        17   0 
c  2       3649  25      1891  24    149507  50     14758  27      1246  26 
c  3       5833  39<     2944  37<   127180  42<    26588  48<     2575  53<
c  4       3164  21      1731  22     16995   6      9014  16       785  16 
c  5       1283   9       812  10      2657   1      2680   5       169   3 
c  6        405   3       276   3       642   0       757   1        39   1 
c  7        198   1       150   2       295   0       370   1        18   0 
c  8         77   1        58   1       148   0       172   0         7   0 
c  9         46   0        44   1        67   0        90   0         6   0 
c 10         29   0        26   0        57   0        63   0         5   0 
c 11         36   0        31   0        59   0        78   0         2   0 
c 12         11   0        10   0        25   0        24   0         2   0 
c 13          0   0         0   0         0   0         0   0         0   0 
c 14          0   0         0   0         0   0         0   0         0   0 
c 15          0   0         0   0         0   0         0   0         0   0 
c 
c avg             3.4           3.5           2.6           3.1           3.0
c std             1.3           1.5           0.7           1.1           0.9
c 
c 122299 decisions, 16491 conflicts, 2055.1 conflicts/sec
c 22418077 propagations, 2.8 megaprops/sec
c 8.0 seconds, 18.2 MB
c 
c    0.480   6% analysis
c    0.112   1% block
c    0.088   1% bump
c    0.000   0% card
c    0.908  11% cce
c    1.292  16% cliff
c    0.000   0% cutwidth
c    0.076   1% decide
c    0.000   0% force
c    0.272   3% gc
c    0.108   1% cgrclsr
c    0.084   1% decomp
c    0.060   1% defrag
c    1.952  24% elim
c    0.328   4% gauss
c    0.128   2% lift
c    0.136   2% mincls
c    0.012   0% phase
c    0.156   2% probe
c    0.016   0% reduce
c    0.044   1% restart
c    0.036   0% ternres
c    0.028   0% transred
c    0.372   5% unhide
c ==================================
c    0.008   0% preprocessing     0%
c    5.552  69% inprocessing    100%
c ==================================
c    5.560  69% simplifying
c    0.000   0% lookahead
c    2.464  31% search
c ==================================
c    8.025 100% all
c
s SATISFIABLE
